12 23
1 4 469
1 7 214
1 10 163
1 12 252
2 3 474
2 6 423
2 9 177
3 6 120
3 8 23
3 9 389
3 11 440
4 5 262
4 10 419
5 9 477
5 10 399
6 8 101
6 9 385
7 10 292
7 11 288
7 12 184
8 9 398
10 12 207
11 12 243
